33D32945 STP File, STP Format Version 1.0

SECTION Comment
Name    "cancer5_6D"
Creator "S. A. Chowdhury, A. A. Schaffer, R. Schwartz"
Problem "Rectilinear Steiner Minimum Tree"
Remark  "Derived from a problem in (prostate) cancer research"
END

SECTION Graph 
Nodes 48
END

SECTION Coordinates
DDDDDD 1 2 2 2 2 2 2 
DDDDDD 2 2 2 1 2 2 2 
DDDDDD 3 1 1 2 1 2 2 
DDDDDD 4 1 2 1 1 2 2 
DDDDDD 5 2 2 2 1 2 2 
DDDDDD 6 2 2 3 2 2 2 
DDDDDD 7 1 2 1 3 2 2 
DDDDDD 8 1 2 2 2 2 2 
DDDDDD 9 1 3 1 2 1 2 
DDDDDD 10 2 2 1 2 3 2 
DDDDDD 11 1 4 2 1 1 2 
DDDDDD 12 2 1 2 2 2 2 
DDDDDD 13 2 5 2 1 2 2 
DDDDDD 14 0 1 2 2 2 2 
DDDDDD 15 1 2 1 1 3 1 
DDDDDD 16 2 2 1 1 2 2 
DDDDDD 17 1 2 1 2 2 2 
DDDDDD 18 1 2 2 1 2 2 
DDDDDD 19 1 2 3 2 2 2 
DDDDDD 20 2 2 1 2 1 1 
DDDDDD 21 2 2 2 1 1 2 
DDDDDD 22 2 2 2 2 1 2 
DDDDDD 23 2 2 2 2 3 2 
DDDDDD 24 2 3 2 2 2 2 
DDDDDD 25 0 2 2 2 1 2 
DDDDDD 26 0 2 2 2 2 2 
DDDDDD 27 1 3 2 2 2 2 
DDDDDD 28 2 2 2 0 2 2 
DDDDDD 29 2 2 2 1 3 2 
DDDDDD 30 2 2 2 2 2 1 
DDDDDD 31 2 2 2 3 2 2 
DDDDDD 32 2 2 3 2 3 2 
DDDDDD 33 2 3 3 2 2 2 
DDDDDD 34 2 4 2 2 2 2 
DDDDDD 35 3 2 2 2 2 2 
DDDDDD 36 2 3 2 4 1 4 
DDDDDD 37 4 2 4 2 4 2 
DDDDDD 38 1 4 3 2 3 4 
DDDDDD 39 4 4 4 2 4 3 
DDDDDD 40 4 4 4 4 4 2 
DDDDDD 41 4 4 4 4 4 4 
DDDDDD 42 3 4 4 2 4 4 
DDDDDD 43 4 3 2 1 2 3 
DDDDDD 44 3 4 3 2 3 4 
DDDDDD 45 4 4 4 2 3 4 
DDDDDD 46 3 4 4 3 4 4 
DDDDDD 47 3 4 4 4 3 4 
DDDDDD 48 4 4 3 4 2 4 
END

EOF